N = 5;
H = 5;
T = 2;

avail = array3d(1..N, 1..H, 1..T, [10, 2, 1, 5, 10, 1, 5, 8, 8, 10, 10, 9, 4, 6, 3, 3, 9, 7, 9, 3, 6, 6, 3, 8, 5, 2, 5, 6, 4, 10, 4, 0, 0, 4, 6, 9, 0, 7, 6, 1, 0, 3, 2, 9, 3, 9, 5, 6, 5, 9]);

r = array2d(1..H, 1..T, [1, 1, 1, 1, 1, 1, 2, 2, 1, 1]);
